WARNING: for repeatability, setting FPU to use double precision
============================[ Problem Statistics ]=============================
|                                                                             |
|  Number of variables:            50                                         |
|  Number of clauses:             218                                         |
|  Parse time:                   0.00 s                                       |
|                                                                             |
============================[ Search Statistics ]==============================
| Conflicts |          ORIGINAL         |          LEARNT          | Progress |
|           |    Vars  Clauses Literals |    Limit  Clauses Lit/Cl |          |
===============================================================================
===============================================================================
restarts              : 1
conflicts             : 44             (30598 /sec)
decisions             : 50             (0.00 % random) (34771 /sec)
propagations          : 665            (462448 /sec)
conflict literals     : 152            (23.23 % deleted)
Memory used           : 20.00 MB
CPU time              : 0.001438 s

UNSATISFIABLE
